
Gurobi 9.0.1 (linux64) logging started Thu Apr 30 22:54:45 2020

Gurobi Optimizer version 9.0.1 build v9.0.1rc0 (linux64)
Optimize a model with 32222 rows, 27380 columns and 603960 nonzeros
Model fingerprint: 0x26b7ab27
Variable types: 0 continuous, 27380 integer (27342 binary)
Coefficient statistics:
  Matrix range     [1e+00, 2e+01]
  Objective range  [1e+00, 1e+02]
  Bounds range     [1e+00, 1e+00]
  RHS range        [1e+00, 1e+00]

User MIP start produced solution with objective 1132 (0.81s)
Loaded user MIP start with objective 1132

Presolve removed 14186 rows and 9384 columns (presolve time = 5s) ...
Presolve removed 14228 rows and 9444 columns
Presolve time: 9.97s
Presolved: 17994 rows, 17936 columns, 501120 nonzeros
Variable types: 0 continuous, 17936 integer (17900 binary)

Root simplex log...

Iteration    Objective       Primal Inf.    Dual Inf.      Time
       0    0.0000000e+00   1.940000e+02   0.000000e+00     12s
    2268    5.2666674e+02   1.300316e+04   0.000000e+00     15s
    4094    5.2847874e+02   5.685813e+03   0.000000e+00     20s
    5671    5.3120855e+02   1.039605e+04   0.000000e+00     25s
    7580    5.3387236e+02   3.364335e+05   0.000000e+00     30s
    9240    5.3565954e+02   2.046355e+04   0.000000e+00     35s
   10734    5.3670620e+02   6.789394e+03   0.000000e+00     40s
   11979    5.3742314e+02   4.395519e+03   0.000000e+00     45s
   13224    5.3840220e+02   5.271716e+03   0.000000e+00     50s
   14303    5.4050024e+02   1.470833e+04   0.000000e+00     55s
   15631    5.4244610e+02   1.474371e+04   0.000000e+00     60s
   16793    5.4376211e+02   7.451225e+03   0.000000e+00     65s
   17872    5.4453116e+02   1.696200e+04   0.000000e+00     70s
   18953    5.4530147e+02   4.306004e+04   0.000000e+00     75s
   19949    5.4671224e+02   5.725283e+03   0.000000e+00     80s
   21111    5.4745962e+02   1.425869e+03   0.000000e+00     85s
   22024    5.4831560e+02   2.284432e+03   0.000000e+00     90s
   23109    5.4903379e+02   4.053752e+03   0.000000e+00     95s
   24022    5.4930645e+02   3.465044e+04   0.000000e+00    100s
   25072    5.4960985e+02   2.432107e+03   0.000000e+00    105s
   26073    5.4998219e+02   5.988295e+02   0.000000e+00    110s
   27083    5.5034335e+02   4.085064e+03   0.000000e+00    115s
   28055    5.5051204e+02   4.011593e+02   0.000000e+00    121s
   28898    5.5071879e+02   3.392704e+02   0.000000e+00    125s
   29919    5.5089677e+02   3.304510e+03   0.000000e+00    130s
   30812    5.5107506e+02   7.046492e+01   0.000000e+00    135s
   31479    5.5108948e+02   0.000000e+00   0.000000e+00    139s

Root relaxation: objective 5.510895e+02, 31479 iterations, 127.76 seconds

    Nodes    |    Current Node    |     Objective Bounds      |     Work
 Expl Unexpl |  Obj  Depth IntInf | Incumbent    BestBd   Gap | It/Node Time

     0     0  551.08948    0 1852 1132.00000  551.08948  51.3%     -  145s
     0     0  582.17748    0 1892 1132.00000  582.17748  48.6%     -  281s
     0     0  582.60883    0 1829 1132.00000  582.60883  48.5%     -  314s
     0     0  582.61987    0 1825 1132.00000  582.61987  48.5%     -  319s
     0     0  582.62643    0 1856 1132.00000  582.62643  48.5%     -  325s
     0     0  582.63086    0 1837 1132.00000  582.63086  48.5%     -  329s
     0     0  582.63097    0 1819 1132.00000  582.63097  48.5%     -  331s
     0     0  601.30915    0 1962 1132.00000  601.30915  46.9%     -  452s
     0     0  601.86218    0 1965 1132.00000  601.86218  46.8%     -  502s
     0     0  601.86554    0 1956 1132.00000  601.86554  46.8%     -  505s
     0     0  610.96867    0 2002 1132.00000  610.96867  46.0%     -  680s
     0     0  611.91558    0 2018 1132.00000  611.91558  45.9%     -  747s
     0     0  613.57256    0 2012 1132.00000  613.57256  45.8%     -  796s
     0     0  613.61025    0 2025 1132.00000  613.61025  45.8%     -  805s
     0     0  613.61561    0 2031 1132.00000  613.61561  45.8%     -  809s
     0     0  618.58574    0 2111 1132.00000  618.58574  45.4%     -  978s
     0     0  619.16969    0 2117 1132.00000  619.16969  45.3%     - 1055s
     0     0  619.25741    0 2085 1132.00000  619.25741  45.3%     - 1073s
     0     0  619.26085    0 2099 1132.00000  619.26085  45.3%     - 1078s
     0     0  620.50166    0 2159 1132.00000  620.50166  45.2%     - 1175s
     0     0  620.67031    0 2169 1132.00000  620.67031  45.2%     - 1226s
     0     0  620.68379    0 2145 1132.00000  620.68379  45.2%     - 1233s
     0     0  621.00125    0 2149 1132.00000  621.00125  45.1%     - 1276s
     0     0  621.05164    0 2139 1132.00000  621.05164  45.1%     - 1317s
     0     0  621.06073    0 2138 1132.00000  621.06073  45.1%     - 1325s
     0     0  621.72594    0 2183 1132.00000  621.72594  45.1%     - 1380s
     0     0  621.87256    0 2190 1132.00000  621.87256  45.1%     - 1413s
     0     0  621.88069    0 2197 1132.00000  621.88069  45.1%     - 1420s
     0     0  622.77068    0 2222 1132.00000  622.77068  45.0%     - 1508s
     0     0  622.85168    0 2220 1132.00000  622.85168  45.0%     - 1531s
     0     0  622.87476    0 2223 1132.00000  622.87476  45.0%     - 1540s
     0     0  622.87701    0 2245 1132.00000  622.87701  45.0%     - 1544s
     0     0  623.43386    0 2201 1132.00000  623.43386  44.9%     - 1594s
     0     0  623.49935    0 2213 1132.00000  623.49935  44.9%     - 1613s
     0     0  623.51436    0 2211 1132.00000  623.51436  44.9%     - 1621s
     0     0  623.71930    0 2212 1132.00000  623.71930  44.9%     - 1676s
     0     0  623.76160    0 2233 1132.00000  623.76160  44.9%     - 1717s
     0     0  623.76802    0 2245 1132.00000  623.76802  44.9%     - 1724s
     0     0  624.08480    0 2231 1132.00000  624.08480  44.9%     - 1770s
     0     0  624.12389    0 2240 1132.00000  624.12389  44.9%     - 1792s
     0     0  624.13628    0 2240 1132.00000  624.13628  44.9%     - 1801s
     0     0  624.43337    0 2249 1132.00000  624.43337  44.8%     - 1846s
     0     0  624.49501    0 2239 1132.00000  624.49501  44.8%     - 1869s
     0     0  624.50454    0 2268 1132.00000  624.50454  44.8%     - 1879s
     0     0  624.58008    0 2254 1132.00000  624.58008  44.8%     - 1900s
     0     0  624.59195    0 2284 1132.00000  624.59195  44.8%     - 1909s
     0     0  624.62785    0 2262 1132.00000  624.62785  44.8%     - 1927s
     0     0  624.62785    0 2249 1132.00000  624.62785  44.8%     - 1944s
     0     2  624.63103    0 2241 1132.00000  624.63103  44.8%     - 2299s
     1     3  627.83127    1 2050 1132.00000  624.63103  44.8% 41955 2626s
     2     4  625.50542    1 2237 1132.00000  625.50542  44.7% 25012 2688s
     3     5  626.30445    2 2179 1132.00000  625.51172  44.7% 19454 2744s
     4     6  632.95128    2 1950 1132.00000  626.30827  44.7% 23028 2966s
     5     7  628.17625    3 2157 1132.00000  626.30906  44.7% 20269 3034s
     6     8  633.76306    3 1971 1132.00000  627.83127  44.5% 22466 3259s
     7     9  629.59673    4 2164 1132.00000  627.83127  44.5% 20232 3302s
     8    10  633.86895    4 1860 1132.00000  627.83127  44.5% 21186 3465s
     9    11  630.64060    5 2159 1132.00000  627.83127  44.5% 19529 3506s

Cutting planes:
  Gomory: 3
  Cover: 2
  MIR: 99
  StrongCG: 23
  GUB cover: 3
  Zero half: 69
  Mod-K: 3
  RLT: 716

Explored 10 nodes (408440 simplex iterations) in 3600.03 seconds
Thread count was 1 (of 40 available processors)

Solution count 1: 1132 

Time limit reached
Best objective 1.132000000000e+03, best bound 6.280000000000e+02, gap 44.5230%

User-callback calls 44948, time in user-callback 0.14 sec
